NAME : Random_TSP_Instance
TYPE : TSP
DIMENSION : 6
EDGE_WEIGHT_TYPE : EXPLICIT
EDGE_WEIGHT_FORMAT : FULL_MATRIX
NODE_COORD_TYPE : NO_COORDS
DISPLAY_DATA_TYPE: TWOD_DISPLAY
EDGE_WEIGHT_SECTION
0.000000 28.598578 1079907.290081 29.025427 1079907.290081 1079907.290081
28.598578 0.000000 90.017987 1079907.290081 1079907.290081 1079907.290081
1079907.290081 90.017987 0.000000 1079907.290081 95.970046 1079907.290081
29.025427 15.634467 1079907.290081 0.000000 1079907.290081 87.466122
1079907.290081 1079907.290081 95.970046 1079907.290081 0.000000 102.595621
1079907.290081 1079907.290081 1079907.290081 87.466122 102.595621 0.000000
EOF
